(set-option :produce-models true)
(set-logic QF_UF)
(declare-fun p21() Bool)
(declare-fun p67() Bool)
(declare-fun p56() Bool)
(declare-fun p52() Bool)
(declare-fun p80() Bool)
(declare-fun p35() Bool)
(declare-fun p73() Bool)
(declare-fun p48() Bool)
(declare-fun p82() Bool)
(declare-fun p15() Bool)
(declare-fun p78() Bool)
(declare-fun p4() Bool)
(declare-fun p70() Bool)
(declare-fun p2() Bool)
(declare-fun p12() Bool)
(declare-fun p89() Bool)
(declare-fun p66() Bool)
(declare-fun p3() Bool)
(declare-fun p72() Bool)
(declare-fun p76() Bool)
(declare-fun p1() Bool)
(declare-fun p77() Bool)
(declare-fun p69() Bool)
(declare-fun p75() Bool)
(declare-fun p46() Bool)
(declare-fun p51() Bool)
(declare-fun p60() Bool)
(declare-fun p88() Bool)
(declare-fun p11() Bool)
(declare-fun p87() Bool)
(declare-fun p25() Bool)
(declare-fun p14() Bool)
(declare-fun p59() Bool)
(declare-fun p55() Bool)
(declare-fun p44() Bool)
(declare-fun p10() Bool)
(declare-fun p79() Bool)
(declare-fun p29() Bool)
(declare-fun p22() Bool)
(declare-fun p24() Bool)
(declare-fun p0() Bool)
(declare-fun p9() Bool)
(declare-fun p49() Bool)
(declare-fun p8() Bool)
(declare-fun p62() Bool)
(declare-fun p27() Bool)
(declare-fun p37() Bool)
(declare-fun p20() Bool)
(declare-fun p17() Bool)
(declare-fun p85() Bool)
(declare-fun p30() Bool)
(declare-fun p26() Bool)
(declare-fun p43() Bool)
(declare-fun p58() Bool)
(declare-fun p34() Bool)
(declare-fun p63() Bool)
(declare-fun p13() Bool)
(declare-fun p36() Bool)
(declare-fun p40() Bool)
(declare-fun p68() Bool)
(declare-fun p33() Bool)
(declare-fun p65() Bool)
(declare-fun p41() Bool)
(declare-fun p28() Bool)
(declare-fun p54() Bool)
(declare-fun p31() Bool)
(declare-fun p74() Bool)
(declare-fun p83() Bool)
(declare-fun p81() Bool)
(declare-fun p5() Bool)
(declare-fun p50() Bool)
(declare-fun p61() Bool)
(declare-fun p47() Bool)
(declare-fun p64() Bool)
(declare-fun p57() Bool)
(declare-fun p19() Bool)
(declare-fun p45() Bool)
(declare-fun p23() Bool)
(declare-fun p42() Bool)
(declare-fun p86() Bool)
(declare-fun p71() Bool)
(declare-fun p39() Bool)
(declare-fun p16() Bool)
(declare-fun p6() Bool)
(declare-fun p7() Bool)
(declare-fun p53() Bool)
(declare-fun p32() Bool)
(declare-fun p84() Bool)
(declare-fun p38() Bool)
(declare-fun p18() Bool)
(assert
(and (or p21 (not p67) p56) (or (not p52) p80 (not p35)) (or p73 p48 p82) (or (not p15) p21 p78) (or (not p73) (not p4) (not p70)) (or (not p2) (not p12) p89) (or p2 (not p66) (not p82)) (or p3 (not p48) (not p72)) (or p76 (not p1) (not p77)) (or p69 p75 (not p46)) (or p51 p60 p35) (or p88 p11 (not p2)) (or (not p80) (not p87) p25) (or p52 (not p72) p66) (or p89 (not p14) (not p82)) (or p59 p46 (not p55)) (or (not p11) p44 p10) (or p79 p29 p2) (or p22 (not p24) (not p0)) (or p9 p49 p8) (or p56 p51 p56) (or (not p62) (not p27) (not p37)) (or p8 (not p62) p20) (or (not p17) (not p14) p85) (or (not p30) p56 p26) (or (not p43) p58 (not p46)) (or p34 p82 p63) (or p22 (not p20) (not p13)) (or (not p51) p37 p36) (or p58 (not p40) p55) (or (not p21) (not p70) p52) (or (not p68) (not p60) p82) (or p46 (not p33) p65) (or (not p41) p28 (not p72)) (or (not p54) (not p54) (not p2)) (or (not p12) p79 p8) (or p44 p62 (not p82)) (or p10 (not p31) (not p89)) (or (not p66) (not p69) p74) (or (not p21) p83 p24) (or p81 (not p82) (not p37)) (or (not p40) p5 (not p25)) (or p50 p11 (not p1)) (or (not p1) p50 p70) (or (not p49) (not p56) (not p72)) (or p52 (not p34) p3) (or (not p81) (not p2) p61) (or (not p28) p11 (not p47)) (or p87 (not p1) (not p69)) (or p80 (not p64) (not p20)) (or (not p5) p44 (not p30)) (or (not p67) p57 p72) (or p19 p25 p87) (or (not p45) p3 (not p9)) (or (not p61) (not p43) (not p69)) (or (not p34) (not p77) (not p87)) (or (not p47) p35 (not p81)) (or p87 (not p73) p31) (or p4 p3 p65) (or (not p50) (not p8) p23) (or (not p12) p40 (not p79)) (or (not p36) (not p19) (not p42)) (or (not p50) p40 (not p72)) (or p20 (not p67) p74) (or (not p86) p71 (not p78)) (or (not p36) p31 p75) (or (not p10) p73 (not p62)) (or p60 (not p47) p83) (or p39 (not p0) p36) (or (not p86) (not p25) p62) (or p16 p6 (not p63)) (or (not p68) p63 p60) (or (not p1) (not p69) (not p70)) (or (not p29) (not p52) (not p78)) (or (not p3) (not p2) (not p43)) (or p42 (not p74) (not p70)) (or p30 (not p54) p87) (or (not p35) p44 p35) (or p7 (not p51) (not p68)) (or p67 (not p9) (not p9)) (or (not p79) p1 (not p22)) (or p42 p67 p46) (or (not p6) (not p70) (not p53)) (or (not p36) p20 p44) (or p22 (not p23) p53) (or p76 p7 (not p70)) (or (not p39) p58 p1) (or (not p65) (not p80) (not p19)) (or p46 (not p42) (not p21)) (or (not p50) (not p19) p24) (or p47 (not p27) p83) (or (not p32) (not p39) p85) (or (not p48) (not p84) (not p47)) (or p48 p73 (not p80)) (or (not p51) (not p81) (not p31)) (or (not p68) (not p42) p88) (or (not p15) (not p61) (not p89)) (or (not p75) p70 (not p76)) (or (not p54) p19 p49) (or (not p81) (not p76) (not p86)) (or (not p69) (not p6) (not p6)) (or p60 p78 (not p44)) (or p87 p53 p84) (or (not p38) p48 p54) (or p43 (not p41) (not p31)) (or p53 (not p37) (not p73)) (or p36 p77 (not p16)) (or (not p41) p27 (not p44)) (or (not p14) (not p42) p76) (or (not p83) p76 (not p89)) (or (not p35) p3 p82) (or p18 p16 p10) (or p51 p67 (not p56)) (or (not p17) p86 p61) (or (not p48) p75 (not p13)) (or (not p12) p61 p86) (or p7 (not p31) p43) (or p56 p10 (not p19)) (or (not p24) p81 p0) (or (not p88) (not p87) (not p31)) (or p49 p62 p44) (or (not p74) (not p77) p60) (or (not p83) (not p77) p14) (or (not p37) (not p70) p0) (or (not p33) (not p2) (not p26)) (or p4 p60 p49) (or (not p88) p61 p28) (or p48 (not p27) p67) (or p74 p44 (not p2)) (or p60 (not p53) p66) (or (not p42) p38 (not p66)) (or (not p39) (not p73) p29) (or p83 p35 p33) (or p20 (not p11) p32) (or (not p78) p61 p59) (or (not p13) p72 (not p24)) (or (not p54) (not p7) (not p54)) (or p83 (not p81) (not p83)) (or (not p45) p66 (not p21)) (or p12 p86 (not p56)) (or (not p8) (not p89) p83) (or p32 (not p10) (not p57)) (or p27 (not p88) (not p53)) (or (not p34) p43 (not p66)) (or (not p40) (not p71) (not p64)) (or (not p64) (not p64) (not p5)) (or (not p80) (not p52) p33) (or p80 (not p86) (not p63)) (or (not p33) p34 p83) (or (not p28) (not p87) (not p21)) (or p51 (not p64) (not p38)) (or (not p31) (not p69) (not p42)) (or p30 (not p19) (not p38)) (or (not p44) p48 p45) (or (not p14) (not p74) p3) (or (not p27) (not p51) (not p31)) (or p78 p24 (not p5)) (or (not p78) (not p30) (not p18)) (or (not p52) (not p29) (not p35)) (or p40 (not p63) p49) (or p86 p31 p83) (or p34 p33 p71) (or (not p89) (not p36) (not p4)) (or p7 p67 (not p66)) (or p76 (not p47) (not p68)) (or p81 (not p51) (not p49)) (or (not p46) p73 p73) (or (not p20) (not p56) (not p49)) (or (not p41) p67 (not p89)) (or (not p16) p30 (not p22)) (or (not p68) p32 (not p1)) (or p58 p79 p3) (or (not p34) p53 (not p88)) (or (not p15) (not p11) (not p20)) (or p64 (not p53) (not p20)) (or (not p5) (not p54) p87) (or (not p65) p31 p83) (or (not p40) p43 (not p39)) (or (not p62) (not p13) p32) (or (not p30) (not p2) p28) (or p33 (not p0) p79) (or p46 (not p19) p34) (or p30 (not p32) (not p43)) (or p4 p29 p34) (or p23 p75 (not p66)) (or (not p6) p61 (not p49)) (or p58 (not p68) (not p51)) (or (not p38) p33 p46) (or (not p43) p22 p29) (or (not p3) (not p66) p22) (or (not p27) (not p15) p71) (or p23 (not p12) p22) (or p73 (not p59) (not p56)) (or p31 p61 p80) (or p0 p71 p30) (or p71 p2 p76) (or p59 (not p1) p79) (or (not p47) (not p5) p88) (or (not p84) (not p39) (not p76)) (or p76 p58 (not p31)) (or (not p38) p9 p47) (or p51 (not p59) (not p28)) (or p25 p75 (not p46)) (or (not p74) p3 p85) (or (not p12) (not p76) p6) (or (not p41) p43 (not p22)) (or p27 p75 (not p87)) (or p59 p13 p47) (or (not p24) (not p62) p52) (or (not p79) (not p71) (not p25)) (or (not p66) p55 (not p46)) (or (not p20) p38 (not p62)) (or (not p21) (not p86) p56) (or (not p9) p74 p49) (or p62 p13 p86) (or p13 (not p39) (not p69)) (or (not p44) (not p77) p46) (or (not p85) (not p48) (not p50)) (or (not p16) p8 p3) (or (not p16) (not p52) (not p4)) (or p84 p84 (not p28)) (or (not p65) p12 p17) (or p18 (not p83) (not p34)) (or p3 (not p48) (not p79)) (or (not p67) p4 (not p73)) (or p48 (not p51) p6) (or (not p65) p31 (not p75)) (or p19 (not p57) p88) (or p81 (not p43) (not p83)) (or p32 p3 (not p34)) (or (not p19) p7 p26) (or p18 p74 (not p77)) (or (not p87) p48 (not p11)) (or p84 p29 p37) (or p72 p52 (not p7)) (or (not p48) p9 (not p40)) (or (not p23) (not p26) p51) (or (not p70) (not p20) (not p61)) (or p66 p86 (not p2)) (or (not p24) (not p62) (not p7)) (or (not p84) p54 (not p26)) (or p24 p74 p69) (or (not p8) p5 p44) (or p15 p66 (not p46)) (or p52 p48 (not p5)) (or (not p67) (not p88) p2) (or (not p35) (not p89) (not p65)) (or p82 p67 p14) (or (not p60) p6 p9) (or (not p30) (not p40) p16) (or (not p17) (not p50) (not p46)) (or (not p86) (not p21) p58) (or p62 (not p88) p55) (or p70 p23 (not p15)) (or (not p59) (not p8) (not p15)) (or p66 p63 p64) (or p60 p72 (not p15)) (or p38 (not p63) p28) (or (not p88) (not p24) p72) (or p32 p57 (not p21)) (or p7 p66 p64) (or (not p88) (not p69) p71) (or p2 (not p8) p21) (or p69 p81 (not p87)) (or (not p69) (not p8) p81) (or (not p32) (not p86) (not p4)) (or (not p81) p86 (not p37)) (or (not p26) (not p41) (not p83)) (or p35 (not p35) p6) (or p1 (not p11) (not p5)) (or (not p19) (not p24) p10) (or p76 (not p31) (not p8)) (or (not p8) (not p27) p23) (or p58 (not p71) p49) (or (not p88) (not p31) (not p6)) (or (not p9) p82 (not p14)) (or (not p50) p63 p19) (or p73 (not p5) (not p49)) (or (not p22) p17 (not p7)) (or p85 p80 p63) (or (not p5) p23 (not p35)) (or p67 p64 (not p86)) (or p87 (not p24) (not p25)) (or (not p75) (not p88) (not p35)) (or (not p30) (not p40) p43) (or p0 p29 (not p65)) (or p13 (not p57) (not p35)) (or (not p42) p83 p77) (or p4 p52 p75) (or p31 (not p62) p83) (or (not p7) (not p68) p62) (or (not p28) (not p55) (not p18)) (or (not p7) (not p71) (not p28)) (or (not p21) (not p71) p16) (or p87 p44 (not p6)) (or (not p11) p5 (not p19)) (or (not p31) (not p0) (not p15)) (or p4 p59 (not p45)) (or p48 p29 p57) (or p60 (not p2) p77) (or (not p86) (not p53) p52) (or p45 p12 p44) (or p9 (not p65) p45) (or (not p19) p8 (not p21)) (or (not p12) p38 (not p10)) (or p62 p55 (not p68)) (or p32 p25 p0) (or p16 (not p67) p45) (or (not p29) (not p68) p86) (or (not p19) p6 p38) (or p38 p54 (not p58)) (or p18 p64 p28) (or (not p12) (not p65) p62) (or p43 (not p48) (not p58)) (or p44 (not p8) p14) (or p52 p49 p59) (or p18 p28 p56) (or (not p15) p84 p3) (or p71 p16 p88) (or (not p35) p77 p53) (or (not p59) (not p53) p76) (or p78 (not p56) p41) (or (not p50) (not p18) (not p78)) (or p83 (not p4) p1) (or p10 p62 p1) (or p60 (not p62) p15) (or p4 p41 (not p53)) (or (not p73) (not p55) p88) (or (not p66) p2 (not p43)) (or p77 (not p1) (not p33)) (or p85 p74 p1) (or p42 p59 (not p62)) (or (not p23) p6 p77) (or (not p36) p79 (not p47)) (or p34 p80 p58) (or p59 (not p81) p78) (or (not p9) (not p83) p57) (or p39 (not p23) p2) (or p22 p58 (not p47)) (or p66 p69 (not p64)) (or (not p26) (not p61) (not p24)) (or (not p72) (not p59) p61) (or p32 (not p64) (not p25)) (or (not p46) p79 p88) (or (not p68) (not p59) (not p83)) (or (not p8) (not p89) p64) (or p18 p38 p15) (or p1 p81 (not p1)) (or (not p76) (not p26) p82) (or p24 (not p2) (not p4)) (or p14 p89 p61) (or p63 p6 p16) (or (not p58) (not p54) p89) (or (not p45) p33 p71) (or p30 p88 (not p12)) (or (not p8) (not p49) p47) (or (not p48) (not p73) p37) (or (not p67) (not p53) p36) (or p20 (not p73) p39) (or (not p49) p41 p14) (or (not p2) (not p7) (not p80)) (or (not p50) p74 (not p71)) (or p67 (not p4) p52) (or (not p27) p73 p29) (or p49 (not p30) (not p28)) (or p47 p32 p0) (or p22 p58 (not p29)) (or p58 p11 (not p29)) (or p89 (not p21) (not p14)) (or (not p24) p57 p43) (or p68 (not p47) p50) (or (not p43) (not p87) p21) (or p71 p0 (not p86)) (or (not p27) p72 p51) (or p4 p53 (not p22)) (or (not p31) p37 p45) (or (not p69) p42 (not p22)) (or p24 p36 p8) (or (not p28) (not p62) p71) (or (not p24) p84 p58) (or (not p3) (not p24) p60) (or p21 (not p33) p75) (or (not p79) p37 (not p55)) (or (not p15) (not p88) (not p88)) (or (not p43) (not p12) p69) (or (not p58) p35 (not p85)) (or (not p60) p17 p65) (or (not p51) p10 (not p75)) (or p69 p8 (not p30)) (or (not p16) p7 (not p15)) (or p81 (not p88) p83) (or (not p60) p83 p41) (or p3 p25 (not p17)) (or (not p25) p23 p78) (or p72 (not p69) (not p32)) (or p88 (not p67) (not p71)) (or (not p30) p69 p18) (or p27 (not p24) (not p88)) (or (not p50) (not p15) p60) (or p16 p62 (not p78)) (or (not p68) p79 p62) (or (not p8) p36 (not p83)) (or (not p78) (not p86) (not p52)) (or p10 (not p34) (not p46)) (or (not p55) (not p89) (not p21)) (or p70 (not p26) p32) (or p74 (not p50) (not p80)) (or (not p9) p60 (not p89)) (or p37 p9 p78) (or p2 p76 (not p30)) (or p8 (not p78) (not p17)) (or p23 p21 p64) (or p27 p46 p51) (or p14 p18 p54) (or (not p81) (not p58) (not p72)) (or p86 p66 p60) (or (not p47) (not p13) (not p44)) (or p35 p82 (not p51)) (or p4 (not p14) (not p19)) (or p66 (not p26) (not p71)) (or p70 p55 p87) (or (not p31) (not p46) (not p54)) (or (not p56) (not p18) p7) (or p85 p59 p9) (or (not p22) p5 (not p46)) (or (not p67) (not p83) (not p48)) (or p71 (not p57) (not p38)) (or (not p44) p72 p1) (or (not p22) (not p76) p25) (or (not p16) (not p21) p44) (or p68 (not p35) (not p43)) (or (not p15) p42 p26) (or p84 p2 p86) (or p81 (not p19) (not p44)) (or (not p81) (not p28) (not p56)) (or p50 p60 p10) (or (not p7) (not p24) p8) (or (not p63) p49 p76) (or p22 p43 p14) (or p85 p74 p48) (or (not p51) p63 p66) (or (not p35) (not p21) (not p69)) (or p28 (not p38) p86) (or p21 (not p56) (not p12)) (or (not p20) (not p54) p35) (or (not p29) p48 (not p24)) (or p77 (not p30) (not p18)) (or (not p28) p75 p22))
)
(check-sat)
(get-model)
